NAME          
ROWS
 N  OBJ
 L  c1
 L  c2
COLUMNS
    MARKER    'MARKER'                 'INTORG'
    x1        c1        1
    MARKER    'MARKER'                 'INTEND'
    x3        c1        -1
    x3        c2        -1
    x2        c2        1
RHS
    rhs       c1        -1
    rhs       c2        -1.1
RANGES
BOUNDS
 LO bounds    x1        1.5
 PL bounds    x1
 LO bounds    x3        1.5
 PL bounds    x3
 MI bounds    x2
 UP bounds    x2        1.5
ENDATA
